
Log started (V11.0.0) Thu May 15 21:26:16 2008

Tried aggregator 1 time.
Reduced MIP has 220 rows, 4001 columns, and 8020 nonzeros.
Presolve time =    0.03 sec.
Clique table members: 200.
MIP emphasis: balance optimality and feasibility.
MIP search method: dynamic search.
Parallel mode: none, using 1 thread.
Root relaxation solution time =    0.12 sec.

        Nodes                                         Cuts/
   Node  Left     Objective  IInf  Best Integer     Best Node    ItCnt     Gap

*     0+    0                        21837.0000     1005.6498      392   95.39%
*     0+    0                         1011.0000     1005.6498      392    0.53%
      0     0     1006.0000    32     1011.0000      Fract: 6      403    0.49%
      0     2     1006.0000    32     1011.0000     1006.0000      403    0.49%
    100    78     1008.0000    31     1011.0000     1006.0000     2421    0.49%
    200   117     1009.0000    34     1011.0000     1006.0000     5775    0.49%
    300   123     1009.0000    35     1011.0000     1006.0000     9002    0.49%
    400   183    infeasible           1011.0000     1006.0000    14269    0.49%
    500   258     1007.0000    30     1011.0000     1006.0000    16768    0.49%
*   513+  174                         1010.0000     1006.0000    18362    0.40%
    600   186     1007.0000    26     1010.0000     1006.0000    19927    0.40%
*   613+  145                         1009.0000     1006.0000    20293    0.30%
    700    96     1008.0000    33     1009.0000     1006.0000    23311    0.30%
    800   148     1006.0000    39     1009.0000     1006.0000    26052    0.30%
*   813+   94                         1008.0000     1006.0000    26313    0.20%
    900   161     1006.0000    15     1008.0000     1006.0000    28764    0.20%
   1000   207    infeasible           1008.0000     1006.0000    32752    0.20%
Elapsed time =  17.30 sec. (tree size =  0.83 MB, solutions = 5)
   1100   247    infeasible           1008.0000     1006.0000    39652    0.20%
   1200   313     1007.0000    26     1008.0000     1006.0000    42208    0.20%
   1300   379     1007.0000    32     1008.0000     1006.0000    44159    0.20%
   1400   437     1007.0000    28     1008.0000     1006.0000    46702    0.20%
   1500   500    infeasible           1008.0000     1006.0000    49003    0.20%
   1600   557     1007.0000    34     1008.0000     1006.0000    51433    0.20%
   1700   657     1007.0000    32     1008.0000     1006.0000    51892    0.20%
   1800   753     1007.0000    27     1008.0000     1006.0000    53124    0.20%
   1900   828     1007.0000    37     1008.0000     1006.0000    56848    0.20%
   2000   915     1007.0000    31     1008.0000     1006.0000    61317    0.20%
Elapsed time =  26.83 sec. (tree size =  3.96 MB, solutions = 5)
   2100   984     1007.0000    34     1008.0000     1006.0000    71251    0.20%
   2200  1047     1007.0000    34     1008.0000     1006.0000    74321    0.20%
   2300  1068     1007.0000    34     1008.0000     1006.0000    79282    0.20%
   2400  1125     1007.0000    33     1008.0000     1006.0000    88093    0.20%
   2500  1154    infeasible           1008.0000     1006.0000    95062    0.20%
   2600  1211     1007.0000    32     1008.0000     1006.0000   102553    0.20%
   2700  1281     1007.0000    25     1008.0000     1006.0000   105650    0.20%
   2800  1339     1007.0000    27     1008.0000     1006.0000   113160    0.20%
   2900  1398     1007.0000    38     1008.0000     1006.0000   120683    0.20%
   3000  1468    infeasible           1008.0000     1006.0000   123788    0.20%
Elapsed time =  40.45 sec. (tree size =  6.46 MB, solutions = 5)
*  3013+  127                         1007.0000     1006.0000   124540    0.10%
   3100    99     1006.0000    57     1007.0000     1006.0000   139265    0.10%
   3200    75     1006.0000    43     1007.0000     1006.0000   163852    0.10%
   3300   135    infeasible           1007.0000     1006.0000   172987    0.10%
   3400   149     1006.0000    50     1007.0000     1006.0000   203143    0.10%
   3500   171     1006.0000    28     1007.0000     1006.0000   234354    0.10%
   3600   175     1006.0000    64     1007.0000     1006.0000   275777    0.10%
   3700   189    infeasible           1007.0000     1006.0000   316651    0.10%
   3800   171    infeasible           1007.0000     1006.0000   369030    0.10%
   3900   187     1006.0000    45     1007.0000     1006.0000   409471    0.10%
   4000   191     1006.0000    65     1007.0000     1006.0000   456134    0.10%
Elapsed time = 122.34 sec. (tree size =  1.11 MB, solutions = 6)
   4100   213    infeasible           1007.0000     1006.0000   490754    0.10%
   4200   227     1006.0000    90     1007.0000     1006.0000   536143    0.10%
   4300   223    infeasible           1007.0000     1006.0000   599625    0.10%
   4400   243    infeasible           1007.0000     1006.0000   651266    0.10%
   4500   241     1006.0000   107     1007.0000     1006.0000   727403    0.10%
   4600   251    infeasible           1007.0000     1006.0000   793557    0.10%
   4700   261     1006.0000   117     1007.0000     1006.0000   858941    0.10%
   4800   213    infeasible           1007.0000     1006.0000   953996    0.10%
   4900   229    infeasible           1007.0000     1006.0000  1017125    0.10%
   5000   227    infeasible           1007.0000     1006.0000  1098211    0.10%
Elapsed time = 361.42 sec. (tree size =  1.87 MB, solutions = 6)
   5100   227     1006.0000    99     1007.0000     1006.0000  1172118    0.10%
   5200   237    infeasible           1007.0000     1006.0000  1237670    0.10%
   5300   225     1006.0000   108     1007.0000     1006.0000  1318820    0.10%
   5400   233    infeasible           1007.0000     1006.0000  1392596    0.10%
   5500   241     1006.0000   116     1007.0000     1006.0000  1466950    0.10%
   5600   243     1006.0000   113     1007.0000     1006.0000  1543897    0.10%
   5700   229    infeasible           1007.0000     1006.0000  1629991    0.10%
   5800   237    infeasible           1007.0000     1006.0000  1706528    0.10%
   5900   257     1006.0000    98     1007.0000     1006.0000  1780531    0.10%
   6000   291     1006.0000   106     1007.0000     1006.0000  1845513    0.10%
Elapsed time = 710.72 sec. (tree size =  2.82 MB, solutions = 6)
   6100   297     1006.0000    92     1007.0000     1006.0000  1926670    0.10%
   6200   301     1006.0000    87     1007.0000     1006.0000  2014510    0.10%
   6300   293    infeasible           1007.0000     1006.0000  2098424    0.10%
   6400   289    infeasible           1007.0000     1006.0000  2177206    0.10%
   6500   279    infeasible           1007.0000     1006.0000  2256098    0.10%
   6600   271     1006.0000   103     1007.0000     1006.0000  2341841    0.10%
   6700   285     1006.0000   125     1007.0000     1006.0000  2411093    0.10%
   6800   285    infeasible           1007.0000     1006.0000  2490286    0.10%
   6900   289    infeasible           1007.0000     1006.0000  2571359    0.10%
   7000   286     1006.0000   111     1007.0000     1006.0000  2659053    0.10%
Elapsed time = 1129.95 sec. (tree size =  2.98 MB, solutions = 6)
   7100   288    infeasible           1007.0000     1006.0000  2744991    0.10%
   7200   262    infeasible           1007.0000     1006.0000  2871133    0.10%
   7300   262    infeasible           1007.0000     1006.0000  2958423    0.10%
   7400   246    infeasible           1007.0000     1006.0000  3058094    0.10%
   7500   250    infeasible           1007.0000     1006.0000  3145593    0.10%
   7600   228    infeasible           1007.0000     1006.0000  3241377    0.10%
   7700   248    infeasible           1007.0000     1006.0000  3327309    0.10%
   7800   270     1006.0000   120     1007.0000     1006.0000  3390504    0.10%
   7900   274     1006.0000   128     1007.0000     1006.0000  3465845    0.10%
   8000   248    infeasible           1007.0000     1006.0000  3567254    0.10%
Elapsed time = 1621.88 sec. (tree size =  2.79 MB, solutions = 6)
   8100   212    infeasible           1007.0000     1006.0000  3690772    0.10%
   8200   196    infeasible           1007.0000     1006.0000  3778690    0.10%
   8300   186     1006.0000   117     1007.0000     1006.0000  3869984    0.10%
   8400   166     1006.0000   128     1007.0000     1006.0000  3962777    0.10%
   8500   134    infeasible           1007.0000     1006.0000  4067235    0.10%
   8600   114    infeasible           1007.0000     1006.0000  4173764    0.10%
   8700   102    infeasible           1007.0000     1006.0000  4268126    0.10%
   8800    88     1006.0000   112     1007.0000     1006.0000  4361284    0.10%
   8900    58     1006.0000   113     1007.0000     1006.0000  4473876    0.10%
   9000    34    infeasible           1007.0000     1006.0000  4576441    0.10%
Elapsed time = 2189.78 sec. (tree size =  0.40 MB, solutions = 6)
   9100    16    infeasible           1007.0000     1006.0000  4677811    0.10%
   9200     2        cutoff           1007.0000     1006.0000  4768517    0.10%

Cover cuts applied:  806
Mixed integer rounding cuts applied:  8
Gomory fractional cuts applied:  4

Solution pool: 6 solutions saved.

MIP - Integer optimal solution:  Objective = 1.0070000000e+003
Solution time = 2303.34 sec.  Iterations = 4768522  Nodes = 9203


Incumbent solution
Variable Name           Solution Value
Cmax                       1007.000000
X_1_1                         1.000000
X_2_9                         1.000000
X_3_9                         1.000000
X_4_10                        1.000000
X_5_5                         1.000000
X_6_11                        1.000000
X_7_6                         1.000000
X_8_3                         1.000000
X_9_19                        1.000000
X_10_20                       1.000000
X_11_13                       1.000000
X_12_8                        1.000000
X_13_12                       1.000000
X_14_17                       1.000000
X_15_5                        1.000000
X_16_11                       1.000000
X_17_5                        1.000000
X_18_20                       1.000000
X_19_3                        1.000000
X_20_9                        1.000000
X_21_2                        1.000000
X_22_14                       1.000000
X_23_13                       1.000000
X_24_20                       1.000000
X_25_14                       1.000000
X_26_6                        1.000000
X_27_19                       1.000000
X_28_6                        1.000000
X_29_4                        1.000000
X_30_12                       1.000000
X_31_1                        1.000000
X_32_1                        1.000000
X_33_14                       1.000000
X_34_7                        1.000000
X_35_5                        1.000000
X_36_4                        1.000000
X_37_6                        1.000000
X_38_8                        1.000000
X_39_2                        1.000000
X_40_8                        1.000000
X_41_4                        1.000000
X_42_9                        1.000000
X_43_14                       1.000000
X_44_11                       1.000000
X_45_17                       1.000000
X_46_8                        1.000000
X_47_7                        1.000000
X_48_17                       1.000000
X_49_16                       1.000000
X_50_3                        1.000000
X_51_11                       1.000000
X_52_20                       1.000000
X_53_8                        1.000000
X_54_15                       1.000000
X_55_18                       1.000000
X_56_17                       1.000000
X_57_5                        1.000000
X_58_14                       1.000000
X_59_5                        1.000000
X_60_7                        1.000000
X_61_10                       1.000000
X_62_20                       1.000000
X_63_19                       1.000000
X_64_12                       1.000000
X_65_19                       1.000000
X_66_6                        1.000000
X_67_13                       1.000000
X_68_18                       1.000000
X_69_8                        1.000000
X_70_14                       1.000000
X_71_4                        1.000000
X_72_2                        1.000000
X_73_3                        1.000000
X_74_17                       1.000000
X_75_19                       1.000000
X_76_3                        1.000000
X_77_17                       1.000000
X_78_20                       1.000000
X_79_2                        1.000000
X_80_18                       1.000000
X_81_3                        1.000000
X_82_1                        1.000000
X_83_2                        1.000000
X_84_20                       1.000000
X_85_4                        1.000000
X_86_17                       1.000000
X_87_9                        1.000000
X_88_16                       1.000000
X_89_18                       1.000000
X_90_7                        1.000000
X_91_9                        1.000000
X_92_14                       1.000000
X_93_6                        1.000000
X_94_6                        1.000000
X_95_3                        1.000000
X_96_9                        1.000000
X_97_13                       1.000000
X_98_18                       1.000000
X_99_20                       1.000000
X_100_6                       1.000000
X_101_7                       1.000000
X_102_14                      1.000000
X_103_16                      1.000000
X_104_16                      1.000000
X_105_19                      1.000000
X_106_14                      1.000000
X_107_12                      1.000000
X_108_11                      1.000000
X_109_17                      1.000000
X_110_10                      1.000000
X_111_16                      1.000000
X_112_12                      1.000000
X_113_2                       1.000000
X_114_4                       1.000000
X_115_10                      1.000000
X_116_8                       1.000000
X_117_15                      1.000000
X_118_11                      1.000000
X_119_7                       1.000000
X_120_13                      1.000000
X_121_2                       1.000000
X_122_8                       1.000000
X_123_13                      1.000000
X_124_18                      1.000000
X_125_20                      1.000000
X_126_16                      1.000000
X_127_19                      1.000000
X_128_15                      1.000000
X_129_4                       1.000000
X_130_19                      1.000000
X_131_10                      1.000000
X_132_16                      1.000000
X_133_5                       1.000000
X_134_11                      1.000000
X_135_1                       1.000000
X_136_15                      1.000000
X_137_7                       1.000000
X_138_18                      1.000000
X_139_11                      1.000000
X_140_16                      1.000000
X_141_3                       1.000000
X_142_13                      1.000000
X_143_12                      1.000000
X_144_8                       1.000000
X_145_3                       1.000000
X_146_18                      1.000000
X_147_5                       1.000000
X_148_19                      1.000000
X_149_12                      1.000000
X_150_4                       1.000000
X_151_19                      1.000000
X_152_5                       1.000000
X_153_12                      1.000000
X_154_8                       1.000000
X_155_1                       1.000000
X_156_15                      1.000000
X_157_9                       1.000000
X_158_1                       1.000000
X_159_5                       1.000000
X_160_12                      1.000000
X_161_6                       1.000000
X_162_11                      1.000000
X_163_13                      1.000000
X_164_18                      1.000000
X_165_15                      1.000000
X_166_10                      1.000000
X_167_16                      1.000000
X_168_15                      1.000000
X_169_2                       1.000000
X_170_7                       1.000000
X_171_15                      1.000000
X_172_17                      1.000000
X_173_14                      1.000000
X_174_18                      1.000000
X_175_10                      1.000000
X_176_3                       1.000000
X_177_1                       1.000000
X_178_12                      1.000000
X_179_2                       1.000000
X_180_13                      1.000000
X_181_6                       1.000000
X_182_2                       1.000000
X_183_7                       1.000000
X_184_10                      1.000000
X_185_1                       1.000000
X_186_17                      1.000000
X_187_15                      1.000000
X_188_13                      1.000000
X_189_10                      1.000000
X_190_9                       1.000000
X_191_1                       1.000000
X_192_4                       1.000000
X_193_10                      1.000000
X_194_7                       1.000000
X_195_4                       1.000000
X_196_16                      1.000000
X_197_15                      1.000000
X_198_11                      1.000000
X_199_20                      1.000000
X_200_9                       1.000000
All other variables in the range 1-4001 are 0.
